(set-logic QF_S)
(declare-fun var0 () String)
(declare-fun var1 () String)
(declare-fun var2 () String)
(declare-fun var3 () String)
(declare-fun var4 () String)
(declare-fun var5 () String)
(declare-fun var6 () String)
(assert (= var0 (Concat ":Afl4" (Concat var1 (Concat var2 (Concat var3 ""))))))
(assert (= var0 (Concat "ICWi." (Concat var4 (Concat var5 (Concat var6 ""))))))
(check-sat)